Geographic Exponential Decay
20 277 220 60 141 202 270 98 237 193 133 101 238 149 171 213 142 292 46 48 81
p edge 320 319
e 0 113 5.0
e 1 35 4.0
e 1 0 1.0
e 2 239 25.0
e 2 105 16.0
e 2 244 6.0
e 2 1 10.0
e 3 102 2.0
e 3 2 43.0
e 4 237 29.0
e 4 3 2.0
e 5 31 1.0
e 5 4 5.0
e 6 117 11.0
e 6 5 4.0
e 7 221 4.0
e 7 6 3.0
e 8 12 1.0
e 8 7 1.0
e 9 206 3.0
e 9 8 9.0
e 10 124 2.0
e 10 9 10.0
e 11 36 4.0
e 11 10 1.0
e 13 133 13.0
e 13 11 1.0
e 14 115 2.0
e 14 13 1.0
e 15 39 2.0
e 15 14 2.0
e 16 182 1.0
e 16 15 2.0
e 17 111 5.0
e 17 16 4.0
e 18 171 18.0
e 18 17 3.0
e 19 20 1.0
e 19 18 1.0
e 21 106 1.0
e 21 19 2.0
e 22 52 1.0
e 22 21 1.0
e 23 37 1.0
e 23 22 1.0
e 24 284 1.0
e 24 23 2.0
e 25 141 50.0
e 26 210 2.0
e 26 24 1.0
e 27 48 54.0
e 27 26 2.0
e 28 68 1.0
e 28 27 4.0
e 29 32 1.0
e 29 28 2.0
e 30 80 1.0
e 30 29 2.0
e 33 108 8.0
e 33 30 1.0
e 34 173 2.0
e 34 33 1.0
e 38 40 10.0
e 38 145 18.0
e 38 34 19.0
e 41 154 5.0
e 41 38 19.0
e 42 262 1.0
e 42 41 5.0
e 43 44 5.0
e 43 42 2.0
e 45 177 1.0
e 45 43 1.0
e 46 47 38.0
e 46 73 96.0
e 46 48 85.0
e 46 104 16.0
e 46 97 37.0
e 48 290 24.0
e 48 49 43.0
e 48 209 86.0
e 50 84 2.0
e 50 45 1.0
e 51 201 2.0
e 51 50 2.0
e 53 228 2.0
e 53 51 1.0
e 54 55 1.0
e 54 53 3.0
e 56 125 1.0
e 56 54 1.0
e 57 189 3.0
e 57 56 1.0
e 58 59 4.0
e 58 57 1.0
e 60 112 9.0
e 60 246 18.0
e 60 61 93.0
e 60 150 3.0
e 60 143 84.0
e 60 58 89.0
e 62 166 22.0
e 62 60 3.0
e 63 264 1.0
e 63 62 4.0
e 64 96 17.0
e 64 63 1.0
e 65 90 2.0
e 65 64 3.0
e 66 114 2.0
e 66 65 1.0
e 67 242 1.0
e 67 66 1.0
e 69 70 2.0
e 69 67 1.0
e 71 237 14.0
e 72 235 2.0
e 72 69 1.0
e 74 126 1.0
e 74 72 1.0
e 75 190 1.0
e 75 74 2.0
e 76 204 4.0
e 76 75 1.0
e 77 78 5.0
e 77 76 5.0
e 79 193 21.0
e 79 77 2.0
e 81 225 80.0
e 81 82 20.0
e 81 83 42.0
e 81 85 4.0
e 81 86 42.0
e 81 79 84.0
e 87 88 1.0
e 87 81 48.0
e 89 174 2.0
e 89 87 2.0
e 91 224 3.0
e 91 89 3.0
e 92 202 76.0
e 92 91 1.0
e 93 245 1.0
e 93 92 1.0
e 94 95 1.0
e 94 93 4.0
e 96 294 4.0
e 98 301 40.0
e 98 99 69.0
e 98 100 93.0
e 98 180 63.0
e 98 151 75.0
e 98 94 30.0
e 101 116 27.0
e 101 300 17.0
e 101 281 22.0
e 101 103 100.0
e 101 107 47.0
e 101 98 22.0
e 109 218 1.0
e 109 101 66.0
e 110 273 1.0
e 110 109 1.0
e 118 217 1.0
e 118 110 1.0
e 119 243 3.0
e 119 118 1.0
e 120 121 1.0
e 120 119 1.0
e 122 208 5.0
e 122 120 8.0
e 123 202 41.0
e 126 127 23.0
e 126 136 31.0
e 128 211 1.0
e 128 122 3.0
e 129 229 1.0
e 129 128 1.0
e 130 250 4.0
e 130 129 3.0
e 131 132 1.0
e 131 130 1.0
e 133 178 99.0
e 133 248 13.0
e 133 134 98.0
e 133 303 56.0
e 135 137 2.0
e 135 131 2.0
e 138 139 17.0
e 138 279 7.0
e 138 135 1.0
e 140 141 5.0
e 141 277 39.0
e 141 152 87.0
e 141 142 20.0
e 142 175 27.0
e 142 144 52.0
e 142 146 66.0
e 142 147 3.0
e 148 149 64.0
e 149 296 22.0
e 149 247 14.0
e 149 274 53.0
e 149 221 94.0
e 153 155 1.0
e 153 138 19.0
e 156 157 12.0
e 156 153 1.0
e 158 280 10.0
e 158 156 1.0
e 159 183 3.0
e 159 158 5.0
e 160 275 1.0
e 160 159 3.0
e 161 230 1.0
e 161 160 1.0
e 162 292 76.0
e 163 164 1.0
e 163 161 2.0
e 165 166 15.0
e 167 168 4.0
e 167 163 1.0
e 169 170 5.0
e 169 167 5.0
e 171 283 34.0
e 171 172 5.0
e 171 175 34.0
e 171 231 45.0
e 176 205 1.0
e 176 169 5.0
e 179 265 1.0
e 179 176 2.0
e 180 181 7.0
e 184 185 1.0
e 184 179 5.0
e 186 187 24.0
e 186 291 27.0
e 186 188 44.0
e 186 184 50.0
e 191 192 3.0
e 191 186 35.0
e 193 194 87.0
e 193 195 26.0
e 193 249 31.0
e 193 212 72.0
e 196 197 8.0
e 196 191 10.0
e 198 199 15.0
e 198 196 7.0
e 199 302 19.0
e 200 202 94.0
e 200 203 20.0
e 202 213 5.0
e 202 207 64.0
e 213 214 20.0
e 213 215 26.0
e 213 226 11.0
e 213 216 81.0
e 219 251 1.0
e 219 198 1.0
e 220 278 33.0
e 220 222 70.0
e 220 223 91.0
e 220 227 46.0
e 220 240 68.0
e 220 219 37.0
e 232 285 2.0
e 232 220 81.0
e 233 234 2.0
e 233 232 4.0
e 236 237 80.0
e 237 238 75.0
e 237 276 41.0
e 238 241 88.0
e 238 252 10.0
e 238 253 39.0
e 238 254 94.0
e 255 256 3.0
e 255 233 3.0
e 257 258 2.0
e 257 255 5.0
e 259 260 6.0
e 259 257 1.0
e 261 263 1.0
e 261 259 5.0
e 266 267 8.0
e 266 261 10.0
e 268 269 4.0
e 268 266 11.0
e 270 271 40.0
e 270 272 93.0
e 270 277 9.0
e 270 282 91.0
e 270 286 78.0
e 277 287 36.0
e 277 318 95.0
e 277 288 35.0
e 289 292 13.0
e 292 293 58.0
e 292 294 45.0
e 292 295 29.0
e 296 297 14.0
e 298 299 1.0
e 298 268 3.0
e 304 305 9.0
e 304 298 9.0
e 306 307 1.0
e 306 304 7.0
e 308 309 1.0
e 308 306 1.0
e 310 311 24.0
e 310 308 3.0
e 311 312 9.0
e 313 314 9.0
e 313 315 1.0
e 313 310 9.0
e 315 316 3.0
e 317 319 10.0
e 317 313 12.0
